
Gurobi 11.0.0 (linux64) logging started Tue Sep 17 03:35:18 2024

Set parameter LogFile to value "gurobi.log"
Set parameter InfUnbdInfo to value 1
Gurobi Optimizer version 11.0.0 build v11.0.0rc2 (linux64 - "Ubuntu 22.04.4 LTS")

CPU model: AMD EPYC 7V13 64-Core Processor, instruction set [SSE2|AVX|AVX2]
Thread count: 128 physical cores, 128 logical processors, using up to 32 threads

Optimize a model with 30 rows, 344 columns and 92 nonzeros
Model fingerprint: 0x0edc7a8e
Model has 342 quadratic constraints
Model has 1 general constraint
Variable types: 92 continuous, 252 integer (0 binary)
Coefficient statistics:
  Matrix range     [1e+00, 5e+04]
  QMatrix range    [1e+00, 5e+04]
  QLMatrix range   [1e+00, 5e+04]
  Objective range  [1e+00, 1e+00]
  Bounds range     [1e+00, 6e+11]
  RHS range        [1e+00, 7e+03]
  QRHS range       [1e+00, 2e+06]
Warning: Model contains large bounds
         Consider reformulating model or setting NumericFocus parameter
         to avoid numerical issues.
Using branch priorities (all 0).
Presolve added 17 rows and 0 columns
Presolve removed 0 rows and 37 columns
Presolve time: 0.01s
Presolved: 1183 rows, 469 columns, 3066 nonzeros
Presolved model has 22 SOS constraint(s)
Presolved model has 201 bilinear constraint(s)
Warning: Model contains variables with very large bounds participating
         in product terms.
         Presolve was not able to compute smaller bounds for these variables.
         Consider bounding these variables or reformulating the model.


Solving non-convex MIQCP

Variable types: 133 continuous, 336 integer (126 binary)

Root relaxation: objective 2.205028e+04, 197 iterations, 0.00 seconds (0.00 work units)

    Nodes    |    Current Node    |     Objective Bounds      |     Work
 Expl Unexpl |  Obj  Depth IntInf | Incumbent    BestBd   Gap | It/Node Time

     0     0 22050.2751    0   76          - 22050.2751      -     -    0s
     0     0 22050.2752    0   98          - 22050.2752      -     -    0s
     0     0 22050.2752    0   94          - 22050.2752      -     -    0s
H    0     0                    771220.00000 22050.2752  97.1%     -    0s
     0     0 22471.4146    0  131 771220.000 22471.4146  97.1%     -    0s
H    0     0                    162380.00000 22471.4603  86.2%     -    0s
     0     0 22479.5480    0  135 162380.000 22479.5480  86.2%     -    0s
     0     0 22479.5480    0  135 162380.000 22479.5480  86.2%     -    0s
     0     0 22486.2148    0  134 162380.000 22486.2148  86.2%     -    0s
     0     0 22515.0347    0  148 162380.000 22515.0347  86.1%     -    0s
     0     0 22533.8259    0  151 162380.000 22533.8259  86.1%     -    0s
     0     0 22533.9264    0  129 162380.000 22533.9264  86.1%     -    0s
     0     0 22533.9428    0  118 162380.000 22533.9428  86.1%     -    0s
     0     0 22560.8067    0  101 162380.000 22560.8067  86.1%     -    0s
     0     0 22613.8821    0  123 162380.000 22613.8821  86.1%     -    0s
     0     0 22613.8821    0   81 162380.000 22613.8821  86.1%     -    0s
     0     0 22613.8821    0   67 162380.000 22613.8821  86.1%     -    0s
H    0     0                    126430.00000 22613.8821  82.1%     -    0s
H    0     0                    114430.00000 22613.8821  80.2%     -    0s
     0     0 22613.8821    0   93 114430.000 22613.8821  80.2%     -    0s
H    0     0                    99460.000000 22613.8821  77.3%     -    0s
     0     0 22613.8821    0   86 99460.0000 22613.8821  77.3%     -    0s
     0     0 22774.6376    0   94 99460.0000 22774.6376  77.1%     -    0s
     0     0 22839.1835    0   94 99460.0000 22839.1835  77.0%     -    0s
     0     0 22909.6148    0   85 99460.0000 22909.6148  77.0%     -    0s
H    0     0                    74375.000000 22909.6952  69.2%     -    0s
     0     0 22910.1011    0   92 74375.0000 22910.1011  69.2%     -    0s
     0     0 22926.1114    0   62 74375.0000 22926.1114  69.2%     -    0s
H    0     0                    63625.000000 22926.3484  64.0%     -    0s
H    0     0                    63575.000000 22926.3484  63.9%     -    0s
     0     0 22926.3484    0   49 63575.0000 22926.3484  63.9%     -    0s
     0     0 22935.3094    0   77 63575.0000 22935.3094  63.9%     -    0s
     0     0 22935.3094    0   39 63575.0000 22935.3094  63.9%     -    0s
     0     0 22935.3094    0   90 63575.0000 22935.3094  63.9%     -    0s
H    0     0                    62255.000000 22935.3094  63.2%     -    0s
     0     0 22935.3094    0   81 62255.0000 22935.3094  63.2%     -    0s
     0     0 23015.6924    0   97 62255.0000 23015.6924  63.0%     -    0s
     0     0 23158.1717    0   97 62255.0000 23158.1717  62.8%     -    0s
     0     0 35261.6452    0   61 62255.0000 35261.6452  43.4%     -    0s
     0     0 35271.5799    0   49 62255.0000 35271.5799  43.3%     -    0s
     0     0 35273.5890    0   65 62255.0000 35273.5890  43.3%     -    0s
     0     0 35273.5890    0   46 62255.0000 35273.5890  43.3%     -    0s
H    0     0                    52835.000000 35273.5890  33.2%     -    0s
H    0     0                    52780.000000 35273.5890  33.2%     -    0s
     0     0 35273.5890    0   46 52780.0000 35273.5890  33.2%     -    0s
H    0     0                    51460.000000 35281.5184  31.4%     -    0s
H    0     0                    50800.000000 35281.5184  30.5%     -    0s
     0     0 35281.5184    0   64 50800.0000 35281.5184  30.5%     -    0s
     0     0 35281.5184    0   70 50800.0000 35281.5184  30.5%     -    0s
     0     0 35281.5184    0   70 50800.0000 35281.5184  30.5%     -    0s
     0     0 35281.5184    0   63 50800.0000 35281.5184  30.5%     -    0s
     0     0 35281.5184    0   63 50800.0000 35281.5184  30.5%     -    0s
     0     0 35475.7839    0   66 50800.0000 35475.7839  30.2%     -    1s
     0     0 35657.2347    0   66 50800.0000 35657.2347  29.8%     -    1s
     0     0 35739.0000    0   66 50800.0000 35739.0000  29.6%     -    1s
     0     0 36024.3333    0   44 50800.0000 36024.3333  29.1%     -    1s
     0     2 36024.3333    0   44 50800.0000 36024.3333  29.1%     -    1s

Cutting planes:
  Gomory: 5
  Implied bound: 13
  MIR: 21
  StrongCG: 1
  Flow cover: 1
  RLT: 20
  Relax-and-lift: 6

Explored 216 nodes (3520 simplex iterations) in 1.31 seconds (0.17 work units)
Thread count was 32 (of 128 available processors)

Solution count 10: 50800 51460 52780 ... 63625

Optimal solution found (tolerance 1.00e-10)
Best objective 5.080000000000e+04, best bound 5.080000000000e+04, gap 0.0000%
